% seed = 6409452

mint = 54;
% maxt = 208;

nActs = 42;
dur = [0,5,5,10,2,3,7,3,6,4,7,5,3,3,8,10,8,4,7,8,6,4,5,8,2,8,10,6,5,4,2,4,5,2,3,2,5,4,8,5,2,0];

nSkills = 4;
sreq = [| 0,0,0,0,
	| 0,7,2,0,
	| 0,2,0,5,
	| 4,6,0,0,
	| 4,0,3,0,
	| 0,2,3,0,
	| 1,0,0,6,
	| 0,3,7,0,
	| 0,5,7,0,
	| 0,6,5,0,
	| 0,5,0,6,
	| 0,3,4,0,
	| 0,4,6,0,
	| 7,4,0,0,
	| 0,0,4,6,
	| 6,0,3,0,
	| 0,4,0,2,
	| 4,5,0,0,
	| 0,4,0,3,
	| 0,0,2,3,
	| 0,5,0,7,
	| 0,0,2,3,
	| 0,1,0,6,
	| 0,4,0,5,
	| 4,0,0,4,
	| 0,5,0,6,
	| 0,3,0,4,
	| 0,5,0,5,
	| 1,0,3,0,
	| 4,0,2,0,
	| 0,3,0,2,
	| 7,0,2,0,
	| 5,0,0,4,
	| 0,0,3,4,
	| 3,4,0,0,
	| 6,0,3,0,
	| 0,4,3,0,
	| 5,0,3,0,
	| 4,0,0,4,
	| 2,0,0,4,
	| 0,0,1,2,
	| 0,0,0,0, |];

nResources = 25;
mastery = [| true,false,true,false,
	| false,false,true,false,
	| false,true,true,true,
	| true,true,true,false,
	| false,true,true,true,
	| true,false,true,true,
	| false,true,false,true,
	| true,true,false,true,
	| true,false,true,true,
	| false,true,false,true,
	| false,true,true,false,
	| false,false,false,true,
	| true,true,true,false,
	| true,false,true,true,
	| false,true,true,true,
	| false,true,true,false,
	| false,false,true,true,
	| true,false,true,true,
	| false,true,false,false,
	| false,true,false,true,
	| true,false,true,true,
	| true,false,true,false,
	| true,true,true,false,
	| false,false,false,true,
	| false,false,true,true, |];

nPrecs = 73;
pred = [1,1,1,2,2,2,3,3,3,4,4,4,5,5,6,7,7,7,8,9,9,9,10,11,11,12,12,12,13,13,14,15,15,15,16,16,16,17,17,17,18,19,20,21,21,22,22,23,23,23,24,25,25,26,27,27,28,28,29,30,30,31,32,33,34,35,35,36,37,38,39,40,41];
succ = [2,3,4,12,13,8,5,6,39,9,25,7,33,10,14,11,22,30,15,20,38,16,18,14,24,41,30,32,26,27,32,17,19,22,41,27,23,26,21,34,29,28,37,28,24,26,29,33,34,24,37,34,38,35,29,32,36,31,35,33,36,41,35,37,40,36,40,39,40,39,42,42,42];

nUnrels = 506;
unpred = [2,2,2,2,2,2,2,2,2,2,2,2,2,2,2,3,3,3,3,3,3,3,3,3,3,3,3,3,3,3,3,3,3,3,3,3,3,3,3,3,4,4,4,4,4,4,4,4,4,4,4,4,4,5,5,5,5,5,5,5,5,5,5,5,5,5,5,5,5,5,5,5,5,5,5,5,5,5,5,5,6,6,6,6,6,6,6,6,6,6,6,6,6,6,6,6,6,6,6,6,6,6,6,6,6,6,6,6,6,7,7,7,7,7,7,7,7,7,7,7,7,7,7,7,7,7,7,7,7,8,8,8,8,8,8,8,8,8,8,8,8,8,8,8,8,9,9,9,9,9,9,9,9,9,9,9,9,9,9,9,9,10,10,10,10,10,10,10,10,10,10,10,10,10,10,10,10,10,10,10,10,10,10,10,10,10,11,11,11,11,11,11,11,11,11,11,11,11,11,11,11,11,11,11,11,11,11,11,12,12,12,12,12,12,12,12,12,12,12,12,12,12,12,12,12,12,12,12,13,13,13,13,13,13,13,13,13,13,13,13,13,13,13,13,13,13,13,13,14,14,14,14,14,14,14,14,14,14,14,14,14,14,14,14,14,14,14,14,14,14,15,15,15,15,15,15,15,15,15,15,16,16,16,16,16,16,16,16,16,16,16,16,17,17,17,17,17,17,17,17,17,17,17,17,18,18,18,18,18,18,18,18,18,18,18,18,18,18,18,18,18,18,19,19,19,19,19,19,19,19,19,19,19,19,19,19,19,19,19,20,20,20,20,20,20,20,20,20,20,20,20,20,20,20,20,20,20,20,21,21,21,21,21,21,21,21,21,21,21,21,22,22,22,22,22,22,22,22,22,22,22,22,22,23,23,23,23,23,23,23,23,23,23,23,23,23,24,24,24,24,24,24,24,24,24,24,24,24,24,24,24,25,25,25,25,25,25,25,25,25,25,25,25,26,26,26,26,26,26,26,26,26,26,26,27,27,27,27,27,27,27,27,28,28,28,28,28,28,28,28,28,29,29,29,29,29,29,29,29,30,30,30,30,30,30,31,31,31,31,31,31,31,31,31,32,32,32,32,32,33,33,33,33,33,33,34,34,34,34,34,34,35,35,35,36,36,36,36,37,37,37,38,38,39,39,40];
unsucc = [3,4,5,6,7,9,10,11,14,16,18,20,23,25,38,4,7,8,9,11,12,13,15,16,17,19,20,21,22,23,24,25,26,27,28,30,31,34,38,41,5,6,8,10,12,13,15,17,18,19,21,28,31,6,7,8,9,11,12,13,14,15,16,17,19,20,21,22,23,24,25,26,27,28,30,31,32,34,38,41,7,8,9,10,11,12,13,15,16,17,18,19,20,21,22,23,24,25,26,27,28,29,30,31,33,34,37,38,41,8,9,10,12,13,15,16,17,18,19,20,21,23,25,27,28,31,34,38,41,9,10,11,12,13,14,16,18,20,23,25,27,30,32,33,38,10,11,12,13,14,15,17,18,19,21,22,25,26,28,30,31,11,12,13,14,15,16,17,19,20,21,22,23,24,25,26,27,28,30,31,32,33,34,37,38,41,12,13,15,16,17,18,19,20,21,22,23,25,26,27,28,29,30,31,33,34,38,41,13,14,15,16,17,18,19,20,21,22,23,24,25,26,27,28,29,31,34,38,14,15,16,17,18,19,20,21,22,23,24,25,28,30,31,33,34,37,38,41,15,16,17,18,19,20,21,22,23,24,25,26,27,28,29,30,31,33,34,37,38,41,16,18,20,23,25,27,30,32,33,38,17,18,19,20,21,22,25,26,28,30,31,38,18,19,20,22,23,25,27,29,30,32,33,38,19,20,21,22,23,24,25,26,27,28,30,31,32,33,34,37,38,41,20,21,22,23,24,25,26,27,29,30,32,33,34,35,37,38,40,21,22,23,24,25,26,27,28,29,30,31,32,33,34,35,36,38,39,41,22,23,25,26,27,29,30,32,33,34,35,38,23,24,25,27,28,30,31,32,33,34,37,38,41,25,26,27,28,29,30,31,32,35,36,38,39,41,25,26,27,28,29,30,31,32,33,34,35,36,38,39,41,26,27,28,29,30,31,32,33,35,36,37,41,27,28,29,30,31,32,33,34,37,38,41,28,30,31,33,34,37,38,41,29,30,32,33,34,35,37,38,40,30,31,32,33,34,37,38,41,31,32,34,35,38,41,32,33,34,35,36,37,38,39,40,33,34,37,38,41,34,35,36,38,39,41,35,36,37,38,39,41,37,38,41,37,38,40,41,38,39,41,40,41,40,41,41];

USEFUL_RES = [{},
	{1,2,3,4,5,6,7,8,9,10,11,13,14,15,16,17,18,19,20,21,22,23,25},
	{3,4,5,6,7,8,9,10,11,12,13,14,15,16,17,18,19,20,21,23,24,25},
	{1,3,4,5,6,7,8,9,10,11,13,14,15,16,18,19,20,21,22,23},
	{1,2,3,4,5,6,8,9,11,13,14,15,16,17,18,21,22,23,25},
	{1,2,3,4,5,6,7,8,9,10,11,13,14,15,16,17,18,19,20,21,22,23,25},
	{1,3,4,5,6,7,8,9,10,12,13,14,15,17,18,20,21,22,23,24,25},
	{1,2,3,4,5,6,7,8,9,10,11,13,14,15,16,17,18,19,20,21,22,23,25},
	{1,2,3,4,5,6,7,8,9,10,11,13,14,15,16,17,18,19,20,21,22,23,25},
	{1,2,3,4,5,6,7,8,9,10,11,13,14,15,16,17,18,19,20,21,22,23,25},
	{3,4,5,6,7,8,9,10,11,12,13,14,15,16,17,18,19,20,21,23,24,25},
	{1,2,3,4,5,6,7,8,9,10,11,13,14,15,16,17,18,19,20,21,22,23,25},
	{1,2,3,4,5,6,7,8,9,10,11,13,14,15,16,17,18,19,20,21,22,23,25},
	{1,3,4,5,6,7,8,9,10,11,13,14,15,16,18,19,20,21,22,23},
	{1,2,3,4,5,6,7,8,9,10,11,12,13,14,15,16,17,18,20,21,22,23,24,25},
	{1,2,3,4,5,6,8,9,11,13,14,15,16,17,18,21,22,23,25},
	{3,4,5,6,7,8,9,10,11,12,13,14,15,16,17,18,19,20,21,23,24,25},
	{1,3,4,5,6,7,8,9,10,11,13,14,15,16,18,19,20,21,22,23},
	{3,4,5,6,7,8,9,10,11,12,13,14,15,16,17,18,19,20,21,23,24,25},
	{1,2,3,4,5,6,7,8,9,10,11,12,13,14,15,16,17,18,20,21,22,23,24,25},
	{3,4,5,6,7,8,9,10,11,12,13,14,15,16,17,18,19,20,21,23,24,25},
	{1,2,3,4,5,6,7,8,9,10,11,12,13,14,15,16,17,18,20,21,22,23,24,25},
	{3,4,5,6,7,8,9,10,11,12,13,14,15,16,17,18,19,20,21,23,24,25},
	{3,4,5,6,7,8,9,10,11,12,13,14,15,16,17,18,19,20,21,23,24,25},
	{1,3,4,5,6,7,8,9,10,12,13,14,15,17,18,20,21,22,23,24,25},
	{3,4,5,6,7,8,9,10,11,12,13,14,15,16,17,18,19,20,21,23,24,25},
	{3,4,5,6,7,8,9,10,11,12,13,14,15,16,17,18,19,20,21,23,24,25},
	{3,4,5,6,7,8,9,10,11,12,13,14,15,16,17,18,19,20,21,23,24,25},
	{1,2,3,4,5,6,8,9,11,13,14,15,16,17,18,21,22,23,25},
	{1,2,3,4,5,6,8,9,11,13,14,15,16,17,18,21,22,23,25},
	{3,4,5,6,7,8,9,10,11,12,13,14,15,16,17,18,19,20,21,23,24,25},
	{1,2,3,4,5,6,8,9,11,13,14,15,16,17,18,21,22,23,25},
	{1,3,4,5,6,7,8,9,10,12,13,14,15,17,18,20,21,22,23,24,25},
	{1,2,3,4,5,6,7,8,9,10,11,12,13,14,15,16,17,18,20,21,22,23,24,25},
	{1,3,4,5,6,7,8,9,10,11,13,14,15,16,18,19,20,21,22,23},
	{1,2,3,4,5,6,8,9,11,13,14,15,16,17,18,21,22,23,25},
	{1,2,3,4,5,6,7,8,9,10,11,13,14,15,16,17,18,19,20,21,22,23,25},
	{1,2,3,4,5,6,8,9,11,13,14,15,16,17,18,21,22,23,25},
	{1,3,4,5,6,7,8,9,10,12,13,14,15,17,18,20,21,22,23,24,25},
	{1,3,4,5,6,7,8,9,10,12,13,14,15,17,18,20,21,22,23,24,25},
	{1,2,3,4,5,6,7,8,9,10,11,12,13,14,15,16,17,18,20,21,22,23,24,25},
	{}];

POTENTIAL_ACT = [{2,4,5,6,7,8,9,10,12,13,14,15,16,18,20,22,25,29,30,32,33,34,35,36,37,38,39,40,41},
	{2,5,6,8,9,10,12,13,15,16,20,22,29,30,32,34,36,37,38,41},
	{2,3,4,5,6,7,8,9,10,11,12,13,14,15,16,17,18,19,20,21,22,23,24,25,26,27,28,29,30,31,32,33,34,35,36,37,38,39,40,41},
	{2,3,4,5,6,7,8,9,10,11,12,13,14,15,16,17,18,19,20,21,22,23,24,25,26,27,28,29,30,31,32,33,34,35,36,37,38,39,40,41},
	{2,3,4,5,6,7,8,9,10,11,12,13,14,15,16,17,18,19,20,21,22,23,24,25,26,27,28,29,30,31,32,33,34,35,36,37,38,39,40,41},
	{2,3,4,5,6,7,8,9,10,11,12,13,14,15,16,17,18,19,20,21,22,23,24,25,26,27,28,29,30,31,32,33,34,35,36,37,38,39,40,41},
	{2,3,4,6,7,8,9,10,11,12,13,14,15,17,18,19,20,21,22,23,24,25,26,27,28,31,33,34,35,37,39,40,41},
	{2,3,4,5,6,7,8,9,10,11,12,13,14,15,16,17,18,19,20,21,22,23,24,25,26,27,28,29,30,31,32,33,34,35,36,37,38,39,40,41},
	{2,3,4,5,6,7,8,9,10,11,12,13,14,15,16,17,18,19,20,21,22,23,24,25,26,27,28,29,30,31,32,33,34,35,36,37,38,39,40,41},
	{2,3,4,6,7,8,9,10,11,12,13,14,15,17,18,19,20,21,22,23,24,25,26,27,28,31,33,34,35,37,39,40,41},
	{2,3,4,5,6,8,9,10,11,12,13,14,15,16,17,18,19,20,21,22,23,24,26,27,28,29,30,31,32,34,35,36,37,38,41},
	{3,7,11,15,17,19,20,21,22,23,24,25,26,27,28,31,33,34,39,40,41},
	{2,3,4,5,6,7,8,9,10,11,12,13,14,15,16,17,18,19,20,21,22,23,24,25,26,27,28,29,30,31,32,33,34,35,36,37,38,39,40,41},
	{2,3,4,5,6,7,8,9,10,11,12,13,14,15,16,17,18,19,20,21,22,23,24,25,26,27,28,29,30,31,32,33,34,35,36,37,38,39,40,41},
	{2,3,4,5,6,7,8,9,10,11,12,13,14,15,16,17,18,19,20,21,22,23,24,25,26,27,28,29,30,31,32,33,34,35,36,37,38,39,40,41},
	{2,3,4,5,6,8,9,10,11,12,13,14,15,16,17,18,19,20,21,22,23,24,26,27,28,29,30,31,32,34,35,36,37,38,41},
	{2,3,5,6,7,8,9,10,11,12,13,15,16,17,19,20,21,22,23,24,25,26,27,28,29,30,31,32,33,34,36,37,38,39,40,41},
	{2,3,4,5,6,7,8,9,10,11,12,13,14,15,16,17,18,19,20,21,22,23,24,25,26,27,28,29,30,31,32,33,34,35,36,37,38,39,40,41},
	{2,3,4,6,8,9,10,11,12,13,14,17,18,19,21,23,24,26,27,28,31,35,37},
	{2,3,4,6,7,8,9,10,11,12,13,14,15,17,18,19,20,21,22,23,24,25,26,27,28,31,33,34,35,37,39,40,41},
	{2,3,4,5,6,7,8,9,10,11,12,13,14,15,16,17,18,19,20,21,22,23,24,25,26,27,28,29,30,31,32,33,34,35,36,37,38,39,40,41},
	{2,4,5,6,7,8,9,10,12,13,14,15,16,18,20,22,25,29,30,32,33,34,35,36,37,38,39,40,41},
	{2,3,4,5,6,7,8,9,10,11,12,13,14,15,16,17,18,19,20,21,22,23,24,25,26,27,28,29,30,31,32,33,34,35,36,37,38,39,40,41},
	{3,7,11,15,17,19,20,21,22,23,24,25,26,27,28,31,33,34,39,40,41},
	{2,3,5,6,7,8,9,10,11,12,13,15,16,17,19,20,21,22,23,24,25,26,27,28,29,30,31,32,33,34,36,37,38,39,40,41}];
